num_offers = 30;
num_halls = 10;
start=[16,3,1,16,49,15,51,14,68,9,46,38,31,68,14,53,14,7,69,67,1,13,47,17,77,44,11,7,43,28];
end=[30,25,48,61,62,94,86,53,80,18,52,76,36,73,81,66,19,75,71,78,41,91,98,82,97,87,95,40,48,89];
price=[1148,1753,1284,756,734,1153,2898,2408,636,959,72,1197,493,241,5931,627,374,1857,262,717,498,5938,1717,3044,1898,3667,3629,3107,560,5695];
requirement=[691,506,665,538,741,718,757,411,479,496,503,407,658,716,834,919,993,631,266,412,459,859,917,833,443,645,958,663,421,377];
capacity=[723,935,398,358,817,791,893,416,992,449];
